p edge 380 1140
e 1 3
e 1 143
e 1 180
e 2 24
e 2 185
e 2 274
e 3 146
e 3 342
e 3 342
e 4 5
e 4 48
e 4 164
e 5 51
e 5 282
e 5 294
e 6 95
e 6 135
e 6 227
e 7 105
e 7 320
e 7 358
e 8 40
e 8 143
e 8 283
e 9 211
e 9 285
e 9 367
e 10 22
e 10 93
e 10 283
e 11 42
e 11 129
e 11 229
e 12 133
e 12 287
e 12 330
e 13 9
e 13 19
e 13 297
e 14 37
e 14 220
e 14 299
e 15 141
e 15 334
e 15 349
e 16 204
e 16 249
e 16 341
e 17 54
e 17 134
e 17 204
e 18 52
e 18 189
e 18 371
e 19 15
e 19 243
e 19 328
e 20 87
e 20 106
e 20 309
e 21 221
e 21 230
e 21 300
e 22 169
e 22 247
e 22 340
e 23 38
e 23 137
e 23 150
e 24 54
e 24 203
e 24 311
e 25 18
e 25 44
e 25 349
e 26 173
e 26 199
e 26 374
e 27 126
e 27 347
e 27 378
e 28 77
e 28 273
e 28 326
e 29 136
e 29 279
e 29 309
e 30 90
e 30 138
e 30 162
e 31 177
e 31 285
e 31 341
e 32 120
e 32 315
e 32 322
e 33 70
e 33 241
e 33 305
e 34 49
e 34 101
e 34 188
e 35 10
e 35 11
e 35 69
e 36 37
e 36 158
e 36 323
e 37 152
e 37 298
e 37 315
e 38 23
e 38 84
e 38 360
e 39 3
e 39 237
e 39 320
e 40 45
e 40 229
e 40 364
e 41 21
e 41 222
e 41 242
e 42 68
e 42 79
e 42 248
e 43 25
e 43 60
e 43 232
e 44 105
e 44 156
e 44 195
e 45 160
e 45 293
e 45 309
e 46 48
e 46 222
e 46 376
e 47 135
e 47 310
e 47 345
e 48 193
e 48 205
e 48 370
e 49 130
e 49 268
e 49 326
e 50 104
e 50 331
e 50 336
e 51 27
e 51 141
e 51 198
e 52 132
e 52 160
e 52 279
e 53 85
e 53 150
e 53 350
e 54 89
e 54 167
e 54 308
e 55 156
e 55 353
e 55 371
e 56 85
e 56 164
e 56 332
e 57 31
e 57 90
e 57 330
e 58 163
e 58 223
e 58 241
e 59 30
e 59 196
e 59 262
e 60 133
e 60 147
e 60 278
e 61 8
e 61 143
e 61 322
e 62 181
e 62 368
e 62 378
e 63 164
e 63 221
e 63 262
e 64 110
e 64 134
e 64 202
e 65 11
e 65 133
e 65 306
e 66 157
e 66 208
e 66 348
e 67 55
e 67 158
e 67 274
e 68 51
e 68 302
e 68 307
e 69 25
e 69 358
e 69 364
e 70 15
e 70 89
e 70 317
e 71 179
e 71 226
e 71 310
e 72 27
e 72 173
e 72 277
e 73 47
e 73 301
e 73 328
e 74 267
e 74 275
e 74 376
e 75 33
e 75 77
e 75 334
e 76 65
e 76 110
e 76 119
e 77 11
e 77 267
e 77 366
e 78 51
e 78 108
e 78 123
e 79 21
e 79 148
e 79 272
e 80 252
e 80 286
e 80 374
e 81 28
e 81 38
e 81 359
e 82 48
e 82 287
e 82 293
e 83 56
e 83 175
e 83 336
e 84 213
e 84 291
e 84 373
e 85 33
e 85 298
e 85 320
e 86 91
e 86 252
e 86 350
e 87 210
e 87 250
e 87 355
e 88 222
e 88 240
e 88 376
e 89 21
e 89 176
e 89 354
e 90 189
e 90 208
e 90 212
e 91 99
e 91 312
e 91 327
e 92 11
e 92 365
e 92 365
e 93 113
e 93 118
e 93 337
e 94 2
e 94 127
e 94 321
e 95 94
e 95 230
e 95 378
e 96 26
e 96 289
e 96 360
e 97 118
e 97 178
e 97 319
e 98 4
e 98 266
e 98 375
e 99 294
e 99 316
e 99 374
e 100 118
e 100 130
e 100 210
e 101 4
e 101 60
e 101 88
e 102 138
e 102 339
e 102 358
e 103 175
e 103 217
e 103 272
e 104 90
e 104 241
e 104 363
e 105 1
e 105 100
e 105 279
e 106 46
e 106 339
e 106 344
e 107 35
e 107 289
e 107 305
e 108 94
e 108 118
e 108 299
e 109 34
e 109 81
e 109 162
e 110 59
e 110 140
e 110 251
e 111 38
e 111 60
e 111 339
e 112 80
e 112 82
e 112 90
e 113 83
e 113 304
e 113 321
e 114 88
e 114 175
e 114 329
e 115 243
e 115 292
e 115 346
e 116 91
e 116 145
e 116 183
e 117 49
e 117 252
e 117 293
e 118 254
e 118 276
e 118 358
e 119 72
e 119 218
e 119 342
e 120 129
e 120 332
e 120 375
e 121 132
e 121 186
e 121 268
e 122 169
e 122 302
e 122 332
e 123 161
e 123 315
e 123 318
e 124 77
e 124 175
e 124 351
e 125 46
e 125 219
e 125 224
e 126 122
e 126 244
e 126 257
e 127 217
e 127 303
e 127 323
e 128 69
e 128 272
e 128 300
e 129 5
e 129 97
e 129 292
e 130 99
e 130 101
e 130 372
e 131 282
e 131 308
e 131 339
e 132 191
e 132 232
e 132 343
e 133 12
e 133 153
e 133 260
e 134 124
e 134 206
e 134 238
e 135 97
e 135 151
e 135 325
e 136 32
e 136 157
e 136 364
e 137 107
e 137 168
e 137 200
e 138 105
e 138 200
e 138 378
e 139 172
e 139 360
e 139 370
e 140 75
e 140 168
e 140 291
e 141 1
e 141 217
e 141 248
e 142 98
e 142 146
e 142 259
e 143 88
e 143 150
e 143 304
e 144 65
e 144 112
e 144 116
e 145 246
e 145 255
e 145 257
e 146 212
e 146 296
e 146 361
e 147 50
e 147 115
e 147 156
e 148 38
e 148 309
e 148 350
e 149 251
e 149 299
e 149 374
e 150 73
e 150 183
e 150 226
e 151 3
e 151 243
e 151 320
e 152 31
e 152 175
e 152 258
e 153 99
e 153 255
e 153 294
e 154 159
e 154 227
e 154 274
e 155 14
e 155 37
e 155 47
e 156 143
e 156 184
e 156 355
e 157 15
e 157 36
e 157 154
e 158 84
e 158 120
e 158 318
e 159 264
e 159 276
e 159 303
e 160 49
e 160 260
e 160 343
e 161 151
e 161 353
e 161 355
e 162 18
e 162 150
e 162 175
e 163 87
e 163 236
e 163 262
e 164 38
e 164 172
e 164 360
e 165 34
e 165 154
e 165 264
e 166 109
e 166 228
e 166 354
e 167 86
e 167 232
e 167 266
e 168 179
e 168 231
e 168 290
e 169 77
e 169 198
e 169 313
e 170 164
e 170 225
e 170 336
e 171 59
e 171 91
e 171 291
e 172 105
e 172 184
e 172 311
e 173 142
e 173 191
e 173 212
e 174 100
e 174 134
e 174 226
e 175 130
e 175 274
e 175 333
e 176 105
e 176 311
e 176 372
e 177 83
e 177 246
e 177 371
e 178 9
e 178 44
e 178 74
e 179 35
e 179 47
e 179 226
e 180 216
e 180 306
e 180 380
e 181 259
e 181 281
e 181 310
e 182 19
e 182 108
e 182 287
e 183 224
e 183 338
e 183 380
e 184 42
e 184 156
e 184 177
e 185 126
e 185 154
e 185 341
e 186 97
e 186 216
e 186 377
e 187 19
e 187 111
e 187 128
e 188 32
e 188 195
e 188 323
e 189 63
e 189 253
e 189 257
e 190 2
e 190 245
e 190 260
e 191 151
e 191 246
e 191 365
e 192 108
e 192 338
e 192 373
e 193 1
e 193 293
e 193 355
e 194 155
e 194 244
e 194 293
e 195 139
e 195 171
e 195 301
e 196 4
e 196 68
e 196 322
e 197 71
e 197 111
e 197 136
e 198 122
e 198 295
e 198 354
e 199 44
e 199 160
e 199 243
e 200 48
e 200 110
e 200 285
e 201 136
e 201 203
e 201 345
e 202 25
e 202 173
e 202 213
e 203 43
e 203 155
e 203 244
e 204 27
e 204 59
e 204 270
e 205 121
e 205 319
e 205 357
e 206 120
e 206 258
e 206 363
e 207 204
e 207 303
e 207 354
e 208 182
e 208 213
e 208 369
e 209 45
e 209 142
e 209 204
e 210 314
e 210 343
e 210 373
e 211 90
e 211 215
e 211 376
e 212 112
e 212 122
e 212 378
e 213 106
e 213 188
e 213 295
e 214 292
e 214 356
e 214 357
e 215 50
e 215 247
e 215 339
e 216 241
e 216 262
e 216 344
e 217 94
e 217 94
e 217 269
e 218 71
e 218 340
e 218 368
e 219 47
e 219 49
e 219 327
e 220 33
e 220 78
e 220 261
e 221 265
e 221 289
e 221 365
e 222 56
e 222 335
e 222 379
e 223 112
e 223 137
e 223 263
e 224 79
e 224 111
e 224 316
e 225 61
e 225 72
e 225 273
e 226 200
e 226 273
e 226 370
e 227 67
e 227 111
e 227 197
e 228 20
e 228 197
e 228 265
e 229 10
e 229 170
e 229 200
e 230 16
e 230 59
e 230 241
e 231 214
e 231 233
e 231 250
e 232 22
e 232 55
e 232 234
e 233 10
e 233 19
e 233 174
e 234 68
e 234 107
e 234 188
e 235 148
e 235 184
e 235 351
e 236 46
e 236 132
e 236 328
e 237 14
e 237 93
e 237 283
e 238 222
e 238 280
e 238 296
e 239 131
e 239 256
e 239 300
e 240 80
e 240 115
e 240 231
e 241 207
e 241 312
e 241 371
e 242 58
e 242 125
e 242 314
e 243 135
e 243 222
e 243 324
e 244 144
e 244 168
e 244 322
e 245 41
e 245 249
e 245 274
e 246 2
e 246 87
e 246 203
e 247 108
e 247 296
e 247 316
e 248 57
e 248 115
e 248 126
e 249 163
e 249 231
e 249 325
e 250 92
e 250 127
e 250 193
e 251 31
e 251 58
e 251 233
e 252 166
e 252 242
e 252 315
e 253 156
e 253 227
e 253 236
e 254 69
e 254 158
e 254 362
e 255 76
e 255 100
e 255 209
e 256 158
e 256 183
e 256 202
e 257 117
e 257 119
e 257 124
e 258 50
e 258 183
e 258 215
e 259 47
e 259 113
e 259 248
e 260 142
e 260 183
e 260 303
e 261 27
e 261 184
e 261 307
e 262 144
e 262 341
e 262 343
e 263 86
e 263 189
e 263 332
e 264 206
e 264 238
e 264 287
e 265 91
e 265 266
e 265 371
e 266 28
e 266 264
e 266 315
e 267 117
e 267 217
e 267 318
e 268 161
e 268 179
e 268 273
e 269 86
e 269 229
e 269 325
e 270 60
e 270 104
e 270 186
e 271 31
e 271 146
e 271 217
e 272 21
e 272 187
e 272 239
e 273 144
e 273 157
e 273 278
e 274 103
e 274 275
e 274 289
e 275 91
e 275 102
e 275 109
e 276 59
e 276 129
e 276 336
e 277 182
e 277 296
e 277 366
e 278 91
e 278 161
e 278 318
e 279 89
e 279 94
e 279 216
e 280 84
e 280 143
e 280 337
e 281 118
e 281 130
e 281 271
e 282 8
e 282 18
e 282 89
e 283 47
e 283 270
e 283 353
e 284 132
e 284 283
e 284 372
e 285 51
e 285 103
e 285 210
e 286 29
e 286 171
e 286 240
e 287 49
e 287 131
e 287 359
e 288 191
e 288 214
e 288 260
e 289 38
e 289 191
e 289 288
e 290 21
e 290 140
e 290 317
e 291 235
e 291 272
e 291 373
e 292 26
e 292 268
e 292 358
e 293 126
e 293 280
e 293 358
e 294 7
e 294 347
e 294 373
e 295 39
e 295 158
e 295 242
e 296 49
e 296 76
e 296 153
e 297 121
e 297 185
e 297 359
e 298 4
e 298 56
e 298 117
e 299 47
e 299 166
e 299 206
e 300 41
e 300 249
e 300 375
e 301 189
e 301 352
e 301 369
e 302 190
e 302 234
e 302 259
e 303 38
e 303 136
e 303 261
e 304 75
e 304 93
e 304 102
e 305 30
e 305 121
e 305 326
e 306 104
e 306 226
e 306 318
e 307 8
e 307 193
e 307 367
e 308 3
e 308 180
e 308 262
e 309 14
e 309 201
e 309 375
e 310 40
e 310 255
e 310 369
e 311 162
e 311 177
e 311 180
e 312 58
e 312 215
e 312 326
e 313 62
e 313 64
e 313 235
e 314 6
e 314 223
e 314 373
e 315 22
e 315 205
e 315 217
e 316 11
e 316 227
e 316 273
e 317 163
e 317 219
e 317 243
e 318 55
e 318 140
e 318 298
e 319 11
e 319 214
e 319 335
e 320 167
e 320 336
e 320 377
e 321 15
e 321 232
e 321 365
e 322 9
e 322 44
e 322 271
e 323 218
e 323 273
e 323 372
e 324 18
e 324 98
e 324 255
e 325 149
e 325 282
e 325 360
e 326 66
e 326 141
e 326 352
e 327 230
e 327 297
e 327 328
e 328 182
e 328 276
e 328 291
e 329 71
e 329 133
e 329 374
e 330 92
e 330 114
e 330 266
e 331 158
e 331 185
e 331 350
e 332 102
e 332 224
e 332 267
e 333 112
e 333 141
e 333 271
e 334 67
e 334 76
e 334 259
e 335 79
e 335 188
e 335 325
e 336 110
e 336 173
e 336 281
e 337 139
e 337 215
e 337 245
e 338 194
e 338 200
e 338 256
e 339 198
e 339 262
e 339 353
e 340 30
e 340 179
e 340 350
e 341 31
e 341 37
e 341 304
e 342 45
e 342 208
e 342 357
e 343 17
e 343 250
e 343 321
e 344 5
e 344 115
e 344 166
e 345 132
e 345 135
e 345 207
e 346 4
e 346 227
e 346 284
e 347 20
e 347 29
e 347 70
e 348 116
e 348 163
e 348 353
e 349 229
e 349 274
e 349 302
e 350 110
e 350 231
e 350 319
e 351 52
e 351 91
e 351 310
e 352 58
e 352 145
e 352 374
e 353 147
e 353 249
e 353 296
e 354 54
e 354 56
e 354 178
e 355 96
e 355 234
e 355 314
e 356 118
e 356 299
e 356 350
e 357 181
e 357 276
e 357 356
e 358 9
e 358 14
e 358 53
e 359 22
e 359 221
e 359 237
e 360 84
e 360 174
e 360 214
e 361 47
e 361 112
e 361 379
e 362 158
e 362 179
e 362 294
e 363 6
e 363 165
e 363 181
e 364 102
e 364 108
e 364 222
e 365 164
e 365 253
e 365 371
e 366 172
e 366 211
e 366 301
e 367 192
e 367 215
e 367 296
e 368 65
e 368 223
e 368 335
e 369 57
e 369 120
e 369 165
e 370 7
e 370 20
e 370 190
e 371 30
e 371 65
e 371 239
e 372 18
e 372 132
e 372 159
e 373 13
e 373 17
e 373 264
e 374 62
e 374 140
e 374 254
e 375 25
e 375 92
e 375 104
e 376 242
e 376 272
e 376 337
e 377 117
e 377 136
e 377 227
e 378 28
e 378 67
e 378 112
e 379 78
e 379 233
e 379 333
e 380 130
e 380 149
e 380 223
